c description: Graph pigeonhole principle formula on fast_gnp_random_graph(10,25,0.9)
c generator: CNFgen (0.9.0)
c copyright: (C) 2012-2020 Massimo Lauria <massimo.lauria@uniroma1.it>
c url: https://massimolauria.net/cnfgen
c
p cnf 225 917
1 2 3 4 5 6 7 8 9 10 11 12 13 14 15 16 17 18 19 20 21 22 23 24 0
25 26 27 28 29 30 31 32 33 34 35 36 37 38 39 40 41 42 43 44 45 46 47 48 0
49 50 51 52 53 54 55 56 57 58 59 60 61 62 63 64 65 66 67 68 69 0
70 71 72 73 74 75 76 77 78 79 80 81 82 83 84 85 86 87 88 89 90 91 92 0
93 94 95 96 97 98 99 100 101 102 103 104 105 106 107 108 109 110 111 112 113 114 0
115 116 117 118 119 120 121 122 123 124 125 126 127 128 129 130 131 132 133 134 135 136 0
137 138 139 140 141 142 143 144 145 146 147 148 149 150 151 152 153 154 155 156 157 158 159 0
160 161 162 163 164 165 166 167 168 169 170 171 172 173 174 175 176 177 178 179 180 181 182 183 184 0
185 186 187 188 189 190 191 192 193 194 195 196 197 198 199 200 201 202 203 204 205 0
206 207 208 209 210 211 212 213 214 215 216 217 218 219 220 221 222 223 224 225 0
-1 -25 0
-1 -49 0
-1 -70 0
-1 -93 0
-1 -115 0
-1 -137 0
-1 -160 0
-1 -185 0
-1 -206 0
-25 -49 0
-25 -70 0
-25 -93 0
-25 -115 0
-25 -137 0
-25 -160 0
-25 -185 0
-25 -206 0
-49 -70 0
-49 -93 0
-49 -115 0
-49 -137 0
-49 -160 0
-49 -185 0
-49 -206 0
-70 -93 0
-70 -115 0
-70 -137 0
-70 -160 0
-70 -185 0
-70 -206 0
-93 -115 0
-93 -137 0
-93 -160 0
-93 -185 0
-93 -206 0
-115 -137 0
-115 -160 0
-115 -185 0
-115 -206 0
-137 -160 0
-137 -185 0
-137 -206 0
-160 -185 0
-160 -206 0
-185 -206 0
-2 -26 0
-2 -50 0
-2 -71 0
-2 -116 0
-2 -138 0
-2 -161 0
-2 -186 0
-2 -207 0
-26 -50 0
-26 -71 0
-26 -116 0
-26 -138 0
-26 -161 0
-26 -186 0
-26 -207 0
-50 -71 0
-50 -116 0
-50 -138 0
-50 -161 0
-50 -186 0
-50 -207 0
-71 -116 0
-71 -138 0
-71 -161 0
-71 -186 0
-71 -207 0
-116 -138 0
-116 -161 0
-116 -186 0
-116 -207 0
-138 -161 0
-138 -186 0
-138 -207 0
-161 -186 0
-161 -207 0
-186 -207 0
-3 -27 0
-3 -51 0
-3 -72 0
-3 -94 0
-3 -117 0
-3 -139 0
-3 -162 0
-3 -208 0
-27 -51 0
-27 -72 0
-27 -94 0
-27 -117 0
-27 -139 0
-27 -162 0
-27 -208 0
-51 -72 0
-51 -94 0
-51 -117 0
-51 -139 0
-51 -162 0
-51 -208 0
-72 -94 0
-72 -117 0
-72 -139 0
-72 -162 0
-72 -208 0
-94 -117 0
-94 -139 0
-94 -162 0
-94 -208 0
-117 -139 0
-117 -162 0
-117 -208 0
-139 -162 0
-139 -208 0
-162 -208 0
-4 -28 0
-4 -52 0
-4 -73 0
-4 -95 0
-4 -118 0
-4 -140 0
-4 -163 0
-4 -187 0
-28 -52 0
-28 -73 0
-28 -95 0
-28 -118 0
-28 -140 0
-28 -163 0
-28 -187 0
-52 -73 0
-52 -95 0
-52 -118 0
-52 -140 0
-52 -163 0
-52 -187 0
-73 -95 0
-73 -118 0
-73 -140 0
-73 -163 0
-73 -187 0
-95 -118 0
-95 -140 0
-95 -163 0
-95 -187 0
-118 -140 0
-118 -163 0
-118 -187 0
-140 -163 0
-140 -187 0
-163 -187 0
-5 -29 0
-5 -53 0
-5 -74 0
-5 -96 0
-5 -141 0
-5 -164 0
-5 -188 0
-5 -209 0
-29 -53 0
-29 -74 0
-29 -96 0
-29 -141 0
-29 -164 0
-29 -188 0
-29 -209 0
-53 -74 0
-53 -96 0
-53 -141 0
-53 -164 0
-53 -188 0
-53 -209 0
-74 -96 0
-74 -141 0
-74 -164 0
-74 -188 0
-74 -209 0
-96 -141 0
-96 -164 0
-96 -188 0
-96 -209 0
-141 -164 0
-141 -188 0
-141 -209 0
-164 -188 0
-164 -209 0
-188 -209 0
-6 -30 0
-6 -75 0
-6 -97 0
-6 -119 0
-6 -142 0
-6 -165 0
-6 -189 0
-6 -210 0
-30 -75 0
-30 -97 0
-30 -119 0
-30 -142 0
-30 -165 0
-30 -189 0
-30 -210 0
-75 -97 0
-75 -119 0
-75 -142 0
-75 -165 0
-75 -189 0
-75 -210 0
-97 -119 0
-97 -142 0
-97 -165 0
-97 -189 0
-97 -210 0
-119 -142 0
-119 -165 0
-119 -189 0
-119 -210 0
-142 -165 0
-142 -189 0
-142 -210 0
-165 -189 0
-165 -210 0
-189 -210 0
-7 -31 0
-7 -54 0
-7 -76 0
-7 -98 0
-7 -120 0
-7 -143 0
-7 -166 0
-7 -190 0
-31 -54 0
-31 -76 0
-31 -98 0
-31 -120 0
-31 -143 0
-31 -166 0
-31 -190 0
-54 -76 0
-54 -98 0
-54 -120 0
-54 -143 0
-54 -166 0
-54 -190 0
-76 -98 0
-76 -120 0
-76 -143 0
-76 -166 0
-76 -190 0
-98 -120 0
-98 -143 0
-98 -166 0
-98 -190 0
-120 -143 0
-120 -166 0
-120 -190 0
-143 -166 0
-143 -190 0
-166 -190 0
-8 -32 0
-8 -55 0
-8 -77 0
-8 -99 0
-8 -121 0
-8 -144 0
-8 -167 0
-8 -191 0
-8 -211 0
-32 -55 0
-32 -77 0
-32 -99 0
-32 -121 0
-32 -144 0
-32 -167 0
-32 -191 0
-32 -211 0
-55 -77 0
-55 -99 0
-55 -121 0
-55 -144 0
-55 -167 0
-55 -191 0
-55 -211 0
-77 -99 0
-77 -121 0
-77 -144 0
-77 -167 0
-77 -191 0
-77 -211 0
-99 -121 0
-99 -144 0
-99 -167 0
-99 -191 0
-99 -211 0
-121 -144 0
-121 -167 0
-121 -191 0
-121 -211 0
-144 -167 0
-144 -191 0
-144 -211 0
-167 -191 0
-167 -211 0
-191 -211 0
-9 -33 0
-9 -56 0
-9 -78 0
-9 -100 0
-9 -122 0
-9 -145 0
-9 -168 0
-9 -192 0
-9 -212 0
-33 -56 0
-33 -78 0
-33 -100 0
-33 -122 0
-33 -145 0
-33 -168 0
-33 -192 0
-33 -212 0
-56 -78 0
-56 -100 0
-56 -122 0
-56 -145 0
-56 -168 0
-56 -192 0
-56 -212 0
-78 -100 0
-78 -122 0
-78 -145 0
-78 -168 0
-78 -192 0
-78 -212 0
-100 -122 0
-100 -145 0
-100 -168 0
-100 -192 0
-100 -212 0
-122 -145 0
-122 -168 0
-122 -192 0
-122 -212 0
-145 -168 0
-145 -192 0
-145 -212 0
-168 -192 0
-168 -212 0
-192 -212 0
-10 -34 0
-10 -79 0
-10 -101 0
-10 -123 0
-10 -146 0
-10 -169 0
-10 -213 0
-34 -79 0
-34 -101 0
-34 -123 0
-34 -146 0
-34 -169 0
-34 -213 0
-79 -101 0
-79 -123 0
-79 -146 0
-79 -169 0
-79 -213 0
-101 -123 0
-101 -146 0
-101 -169 0
-101 -213 0
-123 -146 0
-123 -169 0
-123 -213 0
-146 -169 0
-146 -213 0
-169 -213 0
-11 -35 0
-11 -57 0
-11 -80 0
-11 -102 0
-11 -124 0
-11 -147 0
-11 -170 0
-11 -193 0
-11 -214 0
-35 -57 0
-35 -80 0
-35 -102 0
-35 -124 0
-35 -147 0
-35 -170 0
-35 -193 0
-35 -214 0
-57 -80 0
-57 -102 0
-57 -124 0
-57 -147 0
-57 -170 0
-57 -193 0
-57 -214 0
-80 -102 0
-80 -124 0
-80 -147 0
-80 -170 0
-80 -193 0
-80 -214 0
-102 -124 0
-102 -147 0
-102 -170 0
-102 -193 0
-102 -214 0
-124 -147 0
-124 -170 0
-124 -193 0
-124 -214 0
-147 -170 0
-147 -193 0
-147 -214 0
-170 -193 0
-170 -214 0
-193 -214 0
-12 -58 0
-12 -103 0
-12 -125 0
-12 -148 0
-12 -171 0
-12 -194 0
-12 -215 0
-58 -103 0
-58 -125 0
-58 -148 0
-58 -171 0
-58 -194 0
-58 -215 0
-103 -125 0
-103 -148 0
-103 -171 0
-103 -194 0
-103 -215 0
-125 -148 0
-125 -171 0
-125 -194 0
-125 -215 0
-148 -171 0
-148 -194 0
-148 -215 0
-171 -194 0
-171 -215 0
-194 -215 0
-13 -36 0
-13 -59 0
-13 -81 0
-13 -104 0
-13 -126 0
-13 -172 0
-13 -195 0
-13 -216 0
-36 -59 0
-36 -81 0
-36 -104 0
-36 -126 0
-36 -172 0
-36 -195 0
-36 -216 0
-59 -81 0
-59 -104 0
-59 -126 0
-59 -172 0
-59 -195 0
-59 -216 0
-81 -104 0
-81 -126 0
-81 -172 0
-81 -195 0
-81 -216 0
-104 -126 0
-104 -172 0
-104 -195 0
-104 -216 0
-126 -172 0
-126 -195 0
-126 -216 0
-172 -195 0
-172 -216 0
-195 -216 0
-37 -60 0
-37 -82 0
-37 -105 0
-37 -127 0
-37 -149 0
-37 -173 0
-37 -196 0
-37 -217 0
-60 -82 0
-60 -105 0
-60 -127 0
-60 -149 0
-60 -173 0
-60 -196 0
-60 -217 0
-82 -105 0
-82 -127 0
-82 -149 0
-82 -173 0
-82 -196 0
-82 -217 0
-105 -127 0
-105 -149 0
-105 -173 0
-105 -196 0
-105 -217 0
-127 -149 0
-127 -173 0
-127 -196 0
-127 -217 0
-149 -173 0
-149 -196 0
-149 -217 0
-173 -196 0
-173 -217 0
-196 -217 0
-14 -38 0
-14 -61 0
-14 -83 0
-14 -106 0
-14 -128 0
-14 -150 0
-14 -174 0
-14 -197 0
-14 -218 0
-38 -61 0
-38 -83 0
-38 -106 0
-38 -128 0
-38 -150 0
-38 -174 0
-38 -197 0
-38 -218 0
-61 -83 0
-61 -106 0
-61 -128 0
-61 -150 0
-61 -174 0
-61 -197 0
-61 -218 0
-83 -106 0
-83 -128 0
-83 -150 0
-83 -174 0
-83 -197 0
-83 -218 0
-106 -128 0
-106 -150 0
-106 -174 0
-106 -197 0
-106 -218 0
-128 -150 0
-128 -174 0
-128 -197 0
-128 -218 0
-150 -174 0
-150 -197 0
-150 -218 0
-174 -197 0
-174 -218 0
-197 -218 0
-15 -39 0
-15 -62 0
-15 -84 0
-15 -107 0
-15 -129 0
-15 -151 0
-15 -175 0
-15 -219 0
-39 -62 0
-39 -84 0
-39 -107 0
-39 -129 0
-39 -151 0
-39 -175 0
-39 -219 0
-62 -84 0
-62 -107 0
-62 -129 0
-62 -151 0
-62 -175 0
-62 -219 0
-84 -107 0
-84 -129 0
-84 -151 0
-84 -175 0
-84 -219 0
-107 -129 0
-107 -151 0
-107 -175 0
-107 -219 0
-129 -151 0
-129 -175 0
-129 -219 0
-151 -175 0
-151 -219 0
-175 -219 0
-16 -40 0
-16 -63 0
-16 -108 0
-16 -130 0
-16 -152 0
-16 -176 0
-16 -198 0
-40 -63 0
-40 -108 0
-40 -130 0
-40 -152 0
-40 -176 0
-40 -198 0
-63 -108 0
-63 -130 0
-63 -152 0
-63 -176 0
-63 -198 0
-108 -130 0
-108 -152 0
-108 -176 0
-108 -198 0
-130 -152 0
-130 -176 0
-130 -198 0
-152 -176 0
-152 -198 0
-176 -198 0
-17 -41 0
-17 -64 0
-17 -85 0
-17 -109 0
-17 -131 0
-17 -153 0
-17 -177 0
-17 -199 0
-17 -220 0
-41 -64 0
-41 -85 0
-41 -109 0
-41 -131 0
-41 -153 0
-41 -177 0
-41 -199 0
-41 -220 0
-64 -85 0
-64 -109 0
-64 -131 0
-64 -153 0
-64 -177 0
-64 -199 0
-64 -220 0
-85 -109 0
-85 -131 0
-85 -153 0
-85 -177 0
-85 -199 0
-85 -220 0
-109 -131 0
-109 -153 0
-109 -177 0
-109 -199 0
-109 -220 0
-131 -153 0
-131 -177 0
-131 -199 0
-131 -220 0
-153 -177 0
-153 -199 0
-153 -220 0
-177 -199 0
-177 -220 0
-199 -220 0
-18 -42 0
-18 -65 0
-18 -86 0
-18 -110 0
-18 -132 0
-18 -178 0
-18 -200 0
-18 -221 0
-42 -65 0
-42 -86 0
-42 -110 0
-42 -132 0
-42 -178 0
-42 -200 0
-42 -221 0
-65 -86 0
-65 -110 0
-65 -132 0
-65 -178 0
-65 -200 0
-65 -221 0
-86 -110 0
-86 -132 0
-86 -178 0
-86 -200 0
-86 -221 0
-110 -132 0
-110 -178 0
-110 -200 0
-110 -221 0
-132 -178 0
-132 -200 0
-132 -221 0
-178 -200 0
-178 -221 0
-200 -221 0
-19 -43 0
-19 -66 0
-19 -87 0
-19 -133 0
-19 -154 0
-19 -179 0
-19 -201 0
-43 -66 0
-43 -87 0
-43 -133 0
-43 -154 0
-43 -179 0
-43 -201 0
-66 -87 0
-66 -133 0
-66 -154 0
-66 -179 0
-66 -201 0
-87 -133 0
-87 -154 0
-87 -179 0
-87 -201 0
-133 -154 0
-133 -179 0
-133 -201 0
-154 -179 0
-154 -201 0
-179 -201 0
-20 -44 0
-20 -88 0
-20 -134 0
-20 -155 0
-20 -180 0
-20 -202 0
-20 -222 0
-44 -88 0
-44 -134 0
-44 -155 0
-44 -180 0
-44 -202 0
-44 -222 0
-88 -134 0
-88 -155 0
-88 -180 0
-88 -202 0
-88 -222 0
-134 -155 0
-134 -180 0
-134 -202 0
-134 -222 0
-155 -180 0
-155 -202 0
-155 -222 0
-180 -202 0
-180 -222 0
-202 -222 0
-21 -45 0
-21 -67 0
-21 -89 0
-21 -111 0
-21 -135 0
-21 -156 0
-21 -181 0
-21 -203 0
-21 -223 0
-45 -67 0
-45 -89 0
-45 -111 0
-45 -135 0
-45 -156 0
-45 -181 0
-45 -203 0
-45 -223 0
-67 -89 0
-67 -111 0
-67 -135 0
-67 -156 0
-67 -181 0
-67 -203 0
-67 -223 0
-89 -111 0
-89 -135 0
-89 -156 0
-89 -181 0
-89 -203 0
-89 -223 0
-111 -135 0
-111 -156 0
-111 -181 0
-111 -203 0
-111 -223 0
-135 -156 0
-135 -181 0
-135 -203 0
-135 -223 0
-156 -181 0
-156 -203 0
-156 -223 0
-181 -203 0
-181 -223 0
-203 -223 0
-22 -46 0
-22 -68 0
-22 -90 0
-22 -112 0
-22 -157 0
-22 -182 0
-22 -224 0
-46 -68 0
-46 -90 0
-46 -112 0
-46 -157 0
-46 -182 0
-46 -224 0
-68 -90 0
-68 -112 0
-68 -157 0
-68 -182 0
-68 -224 0
-90 -112 0
-90 -157 0
-90 -182 0
-90 -224 0
-112 -157 0
-112 -182 0
-112 -224 0
-157 -182 0
-157 -224 0
-182 -224 0
-23 -47 0
-23 -91 0
-23 -113 0
-23 -136 0
-23 -158 0
-23 -183 0
-23 -204 0
-23 -225 0
-47 -91 0
-47 -113 0
-47 -136 0
-47 -158 0
-47 -183 0
-47 -204 0
-47 -225 0
-91 -113 0
-91 -136 0
-91 -158 0
-91 -183 0
-91 -204 0
-91 -225 0
-113 -136 0
-113 -158 0
-113 -183 0
-113 -204 0
-113 -225 0
-136 -158 0
-136 -183 0
-136 -204 0
-136 -225 0
-158 -183 0
-158 -204 0
-158 -225 0
-183 -204 0
-183 -225 0
-204 -225 0
-24 -48 0
-24 -69 0
-24 -92 0
-24 -114 0
-24 -159 0
-24 -184 0
-24 -205 0
-48 -69 0
-48 -92 0
-48 -114 0
-48 -159 0
-48 -184 0
-48 -205 0
-69 -92 0
-69 -114 0
-69 -159 0
-69 -184 0
-69 -205 0
-92 -114 0
-92 -159 0
-92 -184 0
-92 -205 0
-114 -159 0
-114 -184 0
-114 -205 0
-159 -184 0
-159 -205 0
-184 -205 0